WARNING: for repeatability, setting FPU to use double precision
============================[ Problem Statistics ]=============================
|                                                                             |
|  Number of variables:           100                                         |
|  Number of clauses:             449                                         |
|  Parse time:                   0.00 s                                       |
|  Simplification time:          0.00 s                                       |
|                                                                             |
============================[ Search Statistics ]==============================
| Conflicts |          ORIGINAL         |          LEARNT          | Progress |
|           |    Vars  Clauses Literals |    Limit  Clauses Lit/Cl |          |
===============================================================================
|       100 |     100      448     1343 |      164      100      8 |  0.010 % |
|       250 |      99      436     1307 |      180       92      8 |  1.020 % |
===============================================================================
restarts              : 3
conflicts             : 255            (80163 /sec)
decisions             : 327            (0.00 % random) (102798 /sec)
propagations          : 6352           (1996856 /sec)
conflict literals     : 1809           (18.33 % deleted)
Memory used           : 13.00 MB
CPU time              : 0.003181 s

SATISFIABLE
